; benchmark generated from python API
(set-info :status unknown)
(declare-datatypes ((IntState 0)) (((Mk1 (val1 Int)) (Mk2 (val2 Int)))))
 (declare-fun |c_hanoi_#t~ret0| () Int)
(declare-fun |c_hanoi_#in~n| () Int)
(declare-fun c_hanoi_~n () Int)
(assert
 (let (($x167 (exists ((v_nnf_39_st IntState) (val!118 Int) )(exists ((v_nnf_37_st IntState) (val!119 Int) )(exists ((v_nnf_38_st IntState) (val!120 Int) )(let (($x29 (<= |c_hanoi_#in~n| 5)))
 (let (($x176 (and $x29 (<= (+ (* 2 (val2 v_nnf_38_st)) 1) (val2 v_nnf_39_st)) (<= (+ (* 2 (val2 v_nnf_39_st)) 1) |c_hanoi_#t~ret0|) (<= (+ (* 2 (val2 v_nnf_37_st)) 1) (val2 v_nnf_38_st)) (<= 1 (val2 v_nnf_37_st)))))
 (let (($x52 (not (= v_nnf_38_st (Mk1 val!120)))))
 (let (($x78 (not (= v_nnf_37_st (Mk1 val!119)))))
 (let (($x61 (not (= v_nnf_39_st (Mk1 val!118)))))
 (and $x61 $x78 $x52 $x176)))))))
 )
 )
 ))
 (let (($x163 (<= |c_hanoi_#in~n| c_hanoi_~n)))
 (let (($x108 (exists ((v_nnf_35 Int) )(exists ((v_nnf_36 Int) )(exists ((v_nnf_34 Int) )(let (($x163 (<= |c_hanoi_#in~n| c_hanoi_~n)))
 (let (($x154 (<= (+ (* 2 v_nnf_36) 1) v_nnf_34)))
 (let (($x93 (<= c_hanoi_~n 5)))
 (and (<= (+ (* 2 v_nnf_34) 1) |c_hanoi_#t~ret0|) $x93 (<= 1 v_nnf_35) (<= (+ (* 2 v_nnf_35) 1) v_nnf_36) $x154 $x163)))))
 )
 )
 ))
 (and $x108 (not (and $x163 $x167)))))))
(check-sat)
